param n := 2;

param m := 5;

param K := 500;

param a :=
1 	 0.056929
2 	 0.508516
;
 param A :=
[1, *, *]:  1	2	:=
1	-0.576080	-0.405337	
2	0.597208	-0.944788	

[2, *, *]:  1	2	:=
1	0.186865	-0.237968	
2	0.687681	0.499717	

[3, *, *]:  1	2	:=
1	0.022283	0.918869	
2	0.081904	0.607922	

[4, *, *]:  1	2	:=
1	-0.935354	-0.069997	
2	0.418775	0.895098	

[5, *, *]:  1	2	:=
1	-0.557135	-0.837052	
2	-0.465856	-0.142762	
;